<number of tasks>
20

<cycle time>
1000

<order strength>
0,205


<task times>
1 196
2 104
3 74
4 136
5 160
6 246
7 267
8 128
9 51
10 173
11 40
12 272
13 199
14 101
15 308
16 24
17 86
18 76
19 51
20 33

<precedence relations>
1,8
2,7
3,5
3,6
5,12
6,11
7,9
8,10
9,13
9,14
11,15
11,16
12,17
14,18
14,20
16,19

<end>
